(declare-fun c_0 () Bool)
(declare-fun c_1 () Bool)
(declare-fun c_2 () Bool)
(declare-fun c_3 () Bool)
(declare-fun c_4 () Bool)
(declare-fun c_6 () Bool)
(declare-fun r_0 () Int)
(declare-fun r_2 () Int)
(declare-fun r_5 () Int)
(declare-fun y_0 () Int)
(declare-fun x () Int)
(declare-fun x_0 () Int)
(declare-fun m_0 () Int)
(declare-fun m_1 () Int)
(declare-fun m_2 () Int)
(declare-fun m_3 () Int)
(declare-fun m_4 () Int)

(assert (= m_4 0))
(assert (not (= m_4 (mod 0 18))))
(check-sat) 
(get-model)